77
125
99	2
98	3
97	4
96	6
95	4
94	2
93	3
92	3
91	3
90	2
89	6
88	2
87	2
86	2
85	1
82	1
81	4
80	1
79	3
77	2
76	4
75	3
74	2
73	3
72	2
71	3
70	1
69	1
68	3
66	4
62	3
61	2
59	2
58	2
57	2
56	3
55	3
54	2
53	6
52	2
51	4
50	3
49	4
48	2
47	1
46	4
45	2
44	5
43	1
41	2
40	3
39	2
38	3
37	4
36	1
35	1
34	2
33	3
32	2
31	2
30	1
28	1
27	4
26	2
25	1
24	3
23	3
22	2
21	2
20	1
19	2
18	4
17	3
16	3
15	2
13	3
12	3
